language Essence 1.3

letting blksize_delta be function(1 --> 3, 2 --> 3, 3 --> 3, 4 --> 3, 5 --> 3, 6 --> 3)
letting maxcars be function(1 --> 9, 2 --> 9, 3 --> 9, 4 --> 9, 5 --> 9, 6 --> 9)
letting n_cars be 300
letting n_classes be 138
letting n_options be 6
letting quantity be
        function(1 --> 2, 2 --> 2, 3 --> 2, 4 --> 2, 5 --> 10, 6 --> 2, 7 --> 2, 8 --> 2, 9 --> 2, 10 --> 2, 11 --> 2,
                 12 --> 2, 13 --> 2, 14 --> 2, 15 --> 2, 16 --> 2, 17 --> 2, 18 --> 16, 19 --> 2, 20 --> 2, 21 --> 2,
                 22 --> 2, 23 --> 2, 24 --> 2, 25 --> 2, 26 --> 2, 27 --> 2, 28 --> 2, 29 --> 2, 30 --> 2, 31 --> 2,
                 32 --> 4, 33 --> 2, 34 --> 2, 35 --> 2, 36 --> 2, 37 --> 2, 38 --> 2, 39 --> 2, 40 --> 2, 41 --> 2,
                 42 --> 2, 43 --> 2, 44 --> 2, 45 --> 2, 46 --> 2, 47 --> 2, 48 --> 2, 49 --> 2, 50 --> 2, 51 --> 2,
                 52 --> 2, 53 --> 2, 54 --> 2, 55 --> 2, 56 --> 2, 57 --> 2, 58 --> 2, 59 --> 2, 60 --> 2, 61 --> 2,
                 62 --> 2, 63 --> 2, 64 --> 2, 65 --> 2, 66 --> 2, 67 --> 2, 68 --> 2, 69 --> 2, 70 --> 2, 71 --> 2,
                 72 --> 2, 73 --> 2, 74 --> 2, 75 --> 2, 76 --> 2, 77 --> 2, 78 --> 2, 79 --> 2, 80 --> 2, 81 --> 2,
                 82 --> 2, 83 --> 2, 84 --> 2, 85 --> 2, 86 --> 2, 87 --> 2, 88 --> 2, 89 --> 2, 90 --> 2, 91 --> 2,
                 92 --> 2, 93 --> 2, 94 --> 2, 95 --> 2, 96 --> 2, 97 --> 2, 98 --> 2, 99 --> 2, 100 --> 2, 101 --> 2,
                 102 --> 2, 103 --> 2, 104 --> 2, 105 --> 2, 106 --> 2, 107 --> 2, 108 --> 2, 109 --> 2, 110 --> 2,
                 111 --> 2, 112 --> 2, 113 --> 2, 114 --> 2, 115 --> 2, 116 --> 2, 117 --> 2, 118 --> 2, 119 --> 2,
                 120 --> 2, 121 --> 2, 122 --> 2, 123 --> 2, 124 --> 2, 125 --> 2, 126 --> 2, 127 --> 2, 128 --> 2,
                 129 --> 2, 130 --> 2, 131 --> 2, 132 --> 2, 133 --> 2, 134 --> 2, 135 --> 2, 136 --> 2, 137 --> 2,
                 138 --> 2)
letting usage be
        relation((1, 6), (2, 6), (3, 1), (4, 6), (5, 6), (6, 6), (7, 6), (8, 2), (8, 4), (9, 6), (10, 6), (11, 6),
                 (12, 3), (13, 3), (14, 6), (15, 3), (16, 3), (17, 3), (18, 6), (19, 6), (20, 4), (21, 6), (22, 6),
                 (23, 3), (24, 6), (25, 3), (25, 6), (26, 6), (27, 6), (28, 6), (29, 6), (30, 6), (31, 3), (31, 5),
                 (32, 5), (33, 4), (34, 6), (35, 1), (36, 4), (37, 6), (38, 5), (39, 6), (40, 3), (40, 6), (41, 6),
                 (42, 3), (42, 6), (43, 6), (44, 4), (45, 2), (46, 6), (47, 6), (48, 6), (49, 6), (50, 6), (51, 6),
                 (52, 6), (53, 4), (54, 6), (55, 6), (56, 6), (57, 6), (58, 2), (59, 6), (60, 6), (61, 6), (62, 3),
                 (63, 6), (64, 5), (65, 6), (66, 5), (67, 6), (68, 6), (69, 3), (69, 5), (70, 4), (70, 5), (71, 1),
                 (71, 3), (72, 4), (73, 6), (74, 6), (75, 6), (76, 5), (77, 4), (78, 4), (79, 6), (80, 2), (80, 3),
                 (81, 6), (82, 6), (83, 2), (83, 6), (84, 4), (85, 5), (86, 2), (87, 6), (88, 3), (89, 2), (89, 4),
                 (90, 1), (91, 3), (92, 6), (93, 1), (93, 3), (94, 1), (95, 6), (96, 4), (97, 6), (98, 6), (99, 4),
                 (100, 6), (101, 1), (101, 3), (102, 1), (102, 5), (103, 4), (103, 5), (104, 6), (105, 2), (106, 2),
                 (106, 5), (107, 3), (108, 6), (109, 6), (110, 6), (111, 6), (112, 6), (113, 6), (114, 6), (115, 4),
                 (115, 6), (116, 5), (116, 6), (117, 6), (118, 3), (119, 6), (120, 2), (121, 6), (122, 2), (122, 3),
                 (123, 6), (124, 6), (125, 6), (126, 2), (127, 6), (128, 2), (128, 5), (129, 2), (129, 6), (130, 3),
                 (130, 6), (131, 3), (131, 6), (132, 6), (133, 3), (133, 6), (134, 6), (135, 6), (136, 6), (137, 3),
                 (137, 6), (138, 1), (138, 2), (138, 3), (138, 4), (138, 5))
$ Visualisation for usage
$   1   6
$   2   6
$   3   1
$   4   6
$   5   6
$   6   6
$   7   6
$   8   2
$   8   4
$   9   6
$  10   6
$  11   6
$  12   3
$  13   3
$  14   6
$  15   3
$  16   3
$  17   3
$  18   6
$  19   6
$  20   4
$  21   6
$  22   6
$  23   3
$  24   6
$  25   3
$  25   6
$  26   6
$  27   6
$  28   6
$  29   6
$  30   6
$  31   3
$  31   5
$  32   5
$  33   4
$  34   6
$  35   1
$  36   4
$  37   6
$  38   5
$  39   6
$  40   3
$  40   6
$  41   6
$  42   3
$  42   6
$  43   6
$  44   4
$  45   2
$  46   6
$  47   6
$  48   6
$  49   6
$  50   6
$  51   6
$  52   6
$  53   4
$  54   6
$  55   6
$  56   6
$  57   6
$  58   2
$  59   6
$  60   6
$  61   6
$  62   3
$  63   6
$  64   5
$  65   6
$  66   5
$  67   6
$  68   6
$  69   3
$  69   5
$  70   4
$  70   5
$  71   1
$  71   3
$  72   4
$  73   6
$  74   6
$  75   6
$  76   5
$  77   4
$  78   4
$  79   6
$  80   2
$  80   3
$  81   6
$  82   6
$  83   2
$  83   6
$  84   4
$  85   5
$  86   2
$  87   6
$  88   3
$  89   2
$  89   4
$  90   1
$  91   3
$  92   6
$  93   1
$  93   3
$  94   1
$  95   6
$  96   4
$  97   6
$  98   6
$  99   4
$ 100   6
$ 101   1
$ 101   3
$ 102   1
$ 102   5
$ 103   4
$ 103   5
$ 104   6
$ 105   2
$ 106   2
$ 106   5
$ 107   3
$ 108   6
$ 109   6
$ 110   6
$ 111   6
$ 112   6
$ 113   6
$ 114   6
$ 115   4
$ 115   6
$ 116   5
$ 116   6
$ 117   6
$ 118   3
$ 119   6
$ 120   2
$ 121   6
$ 122   2
$ 122   3
$ 123   6
$ 124   6
$ 125   6
$ 126   2
$ 127   6
$ 128   2
$ 128   5
$ 129   2
$ 129   6
$ 130   3
$ 130   6
$ 131   3
$ 131   6
$ 132   6
$ 133   3
$ 133   6
$ 134   6
$ 135   6
$ 136   6
$ 137   3
$ 137   6
$ 138   1
$ 138   2
$ 138   3
$ 138   4
$ 138   5

